data/instances/vrp_files/train_59.vrp
NAME : 59
COMMENT : Generated instance No. 59
TYPE : CVRP
DIMENSION : 21
EDGE_WEIGHT_TYPE : EUC_2D
CAPACITY : 30
NODE_COORD_SECTION
 1 179 705
 2 837 619
 3 563 624
 4 864 586
 5 580 990
 6 756 442
 7 707 389
 8 228 596
 9 928 929
 10 341 527
 11 211 995
 12 981 649
 13 804 715
 14 593 53
 15 454 674
 16 677 373
 17 941 167
 18 500 690
 19 697 648
 20 275 156
 21 635 599
DEMAND_SECTION
1 0
2 6
3 2
4 1
5 2
6 4
7 2
8 1
9 7
10 8
11 6
12 4
13 6
14 3
15 8
16 10
17 2
18 5
19 1
20 6
21 2
DEPOT_SECTION
 1
 -1
EOF